
%FILE DATA:	Soccer Computational Problem for MiniZinc Models	%
%AUTHOR:	Jack Wall	%
%CONTACT:  	116397063@umail.ucc.ie			%
%LAST UPDATE:	02/19/2020, 12:16:33						%
%DESCRIPTION: 	60 games played with 30 games left				%


n=10; %number of teams

%Games to play
games=[|2,6|6,2|6,9|6,3|3,1|1,3|2,1|9,3|1,4|7,3|4,10|8,4|8,2|5,1|4,6|2,7|5,10|2,3|9,6|4,7|7,9|9,10|9,1|9,8|3,9|7,6|1,6|2,5|2,9|9,5|];

%Initial points
iPoints=[12,7,10,16,17,15,14,29,18,19];

%POSITION CONSTRAINTS
% [|teamID, operator, position|...]
% operators index:
%  1 for =  operator
%  2 for >  operator
%  3 for >= operator
%  4 for <  operator
%  5 for <= operator
positionConstraints=[|8,3,1|10,1,2|6,3,3|9,2,3|5,5,5|];